110646
110646
109380
108842
108015
106099
106099
100225
100225
100225
100225
100225
99444
98116.5
98116.5
98116.5
98116.5
97880.7
97880.7
95531.1
95531.1
94394.8
94394.8
94062.9
93003.8
89252.6
89252.6
89252.6
89133.5
89133.5
89133.5
89133.5
89133.5
89133.5
89133.5
88184.7
88184.7
88184.7
88184.7
85865.1
85865.1
85865.1
83711.2
83711.2
83711.2
83711.2
83711.2
82883.5
82883.5
82883.5
82883.5
82883.5
81776
80062.2
80062.2
80062.2
80062.2
77616.4
77616.4
77616.4
77616.4
77616.4
77616.4
77616.4
77463.7
77463.7
74965.7
74965.7
74965.7
74965.7
74965.7
74965.7
74788.4
74788.4
74144.7
73656.5
73656.5
72772
72772
72772
72772
71334.8
71334.8
71334.8
70774.1
70774.1
70350.7
70207.3
70207.3
69002.8
69002.8
68907.2
68602.7
67933.8
67811.3
67811.3
67811.3
66162.5
66162.5
66162.5
